9918 9517
7079 331
4125 4331
9989 5971
6948 2379
1489 5129
7655 4075
367 4445
5921 1414
1409 8547
555 9514
6034 2554
5873 5364
8722 3129
2392 3636
6999 3019
9729 4952
1750 6707
9342 24
8670 937
886 8990
3703 811
1911 4311
398 9709
9316 1222
8580 930
7261 1273
9007 781
5360 9198
5059 5469
7547 9766
6970 1307
1130 8566
6068 9812
7884 4549
9608 4038
4683 5892
7695 3746
9792 55
8329 3611
4930 2779
9586 755
6230 190
8812 3994
7564 3027
8552 1020
6148 3510
9184 9317
1141 8577
6018 2842
